p cnf 36 444
1 2 3 0
4 5 6 0
7 8 9 0
10 11 12 0
13 14 15 0
16 17 18 0
19 20 21 0
22 23 24 0
25 26 27 0
28 29 30 0
31 32 33 0
34 35 36 0
-1 -2 0
-1 -3 0
-2 -3 0
-4 -5 0
-4 -6 0
-5 -6 0
-7 -8 0
-7 -9 0
-8 -9 0
-10 -11 0
-10 -12 0
-11 -12 0
-13 -14 0
-13 -15 0
-14 -15 0
-16 -17 0
-16 -18 0
-17 -18 0
-19 -20 0
-19 -21 0
-20 -21 0
-22 -23 0
-22 -24 0
-23 -24 0
-25 -26 0
-25 -27 0
-26 -27 0
-28 -29 0
-28 -30 0
-29 -30 0
-31 -32 0
-31 -33 0
-32 -33 0
-34 -35 0
-34 -36 0
-35 -36 0
-1 4 5 6 0
-2 4 5 6 0
-3 4 5 6 0
-1 7 8 9 0
-2 7 8 9 0
-3 7 8 9 0
-1 11 12 0
-2 10 12 0
-3 10 11 0
-1 13 14 15 0
-2 13 14 15 0
-3 13 14 15 0
-1 16 17 18 0
-2 16 17 18 0
-3 16 17 18 0
-1 20 21 0
-2 19 21 0
-3 19 20 0
-1 22 23 24 0
-2 22 23 24 0
-3 22 23 24 0
-1 26 27 0
-2 25 27 0
-3 25 26 0
-1 28 29 30 0
-2 28 29 30 0
-3 28 29 30 0
-1 31 32 33 0
-2 31 32 33 0
-3 31 32 33 0
-1 34 35 36 0
-2 34 35 36 0
-3 34 35 36 0
-4 1 2 3 0
-5 1 2 3 0
-6 1 2 3 0
-4 8 9 0
-5 7 9 0
-6 7 8 0
-4 10 11 12 0
-5 10 11 12 0
-6 10 11 12 0
-4 13 14 15 0
-5 13 14 15 0
-6 13 14 15 0
-4 17 18 0
-5 16 18 0
-6 16 17 0
-4 20 21 0
-5 19 21 0
-6 19 20 0
-4 22 23 24 0
-5 22 23 24 0
-6 22 23 24 0
-4 25 26 27 0
-5 25 26 27 0
-6 25 26 27 0
-4 29 30 0
-5 28 30 0
-6 28 29 0
-4 32 33 0
-5 31 33 0
-6 31 32 0
-4 35 36 0
-5 34 36 0
-6 34 35 0
-7 1 2 3 0
-8 1 2 3 0
-9 1 2 3 0
-7 5 6 0
-8 4 6 0
-9 4 5 0
-7 10 11 12 0
-8 10 11 12 0
-9 10 11 12 0
-7 14 15 0
-8 13 15 0
-9 13 14 0
-7 17 18 0
-8 16 18 0
-9 16 17 0
-7 19 20 21 0
-8 19 20 21 0
-9 19 20 21 0
-7 22 23 24 0
-8 22 23 24 0
-9 22 23 24 0
-7 26 27 0
-8 25 27 0
-9 25 26 0
-7 28 29 30 0
-8 28 29 30 0
-9 28 29 30 0
-7 31 32 33 0
-8 31 32 33 0
-9 31 32 33 0
-7 34 35 36 0
-8 34 35 36 0
-9 34 35 36 0
-10 2 3 0
-11 1 3 0
-12 1 2 0
-10 4 5 6 0
-11 4 5 6 0
-12 4 5 6 0
-10 7 8 9 0
-11 7 8 9 0
-12 7 8 9 0
-10 13 14 15 0
-11 13 14 15 0
-12 13 14 15 0
-10 16 17 18 0
-11 16 17 18 0
-12 16 17 18 0
-10 20 21 0
-11 19 21 0
-12 19 20 0
-10 22 23 24 0
-11 22 23 24 0
-12 22 23 24 0
-10 25 26 27 0
-11 25 26 27 0
-12 25 26 27 0
-10 29 30 0
-11 28 30 0
-12 28 29 0
-10 31 32 33 0
-11 31 32 33 0
-12 31 32 33 0
-10 34 35 36 0
-11 34 35 36 0
-12 34 35 36 0
-13 1 2 3 0
-14 1 2 3 0
-15 1 2 3 0
-13 4 5 6 0
-14 4 5 6 0
-15 4 5 6 0
-13 8 9 0
-14 7 9 0
-15 7 8 0
-13 10 11 12 0
-14 10 11 12 0
-15 10 11 12 0
-13 17 18 0
-14 16 18 0
-15 16 17 0
-13 20 21 0
-14 19 21 0
-15 19 20 0
-13 23 24 0
-14 22 24 0
-15 22 23 0
-13 25 26 27 0
-14 25 26 27 0
-15 25 26 27 0
-13 29 30 0
-14 28 30 0
-15 28 29 0
-13 32 33 0
-14 31 33 0
-15 31 32 0
-13 35 36 0
-14 34 36 0
-15 34 35 0
-16 1 2 3 0
-17 1 2 3 0
-18 1 2 3 0
-16 5 6 0
-17 4 6 0
-18 4 5 0
-16 8 9 0
-17 7 9 0
-18 7 8 0
-16 10 11 12 0
-17 10 11 12 0
-18 10 11 12 0
-16 14 15 0
-17 13 15 0
-18 13 14 0
-16 19 20 21 0
-17 19 20 21 0
-18 19 20 21 0
-16 23 24 0
-17 22 24 0
-18 22 23 0
-16 25 26 27 0
-17 25 26 27 0
-18 25 26 27 0
-16 29 30 0
-17 28 30 0
-18 28 29 0
-16 32 33 0
-17 31 33 0
-18 31 32 0
-16 34 35 36 0
-17 34 35 36 0
-18 34 35 36 0
-19 2 3 0
-20 1 3 0
-21 1 2 0
-19 5 6 0
-20 4 6 0
-21 4 5 0
-19 7 8 9 0
-20 7 8 9 0
-21 7 8 9 0
-19 11 12 0
-20 10 12 0
-21 10 11 0
-19 14 15 0
-20 13 15 0
-21 13 14 0
-19 16 17 18 0
-20 16 17 18 0
-21 16 17 18 0
-19 22 23 24 0
-20 22 23 24 0
-21 22 23 24 0
-19 25 26 27 0
-20 25 26 27 0
-21 25 26 27 0
-19 28 29 30 0
-20 28 29 30 0
-21 28 29 30 0
-19 31 32 33 0
-20 31 32 33 0
-21 31 32 33 0
-19 34 35 36 0
-20 34 35 36 0
-21 34 35 36 0
-22 1 2 3 0
-23 1 2 3 0
-24 1 2 3 0
-22 4 5 6 0
-23 4 5 6 0
-24 4 5 6 0
-22 7 8 9 0
-23 7 8 9 0
-24 7 8 9 0
-22 10 11 12 0
-23 10 11 12 0
-24 10 11 12 0
-22 14 15 0
-23 13 15 0
-24 13 14 0
-22 17 18 0
-23 16 18 0
-24 16 17 0
-22 19 20 21 0
-23 19 20 21 0
-24 19 20 21 0
-22 25 26 27 0
-23 25 26 27 0
-24 25 26 27 0
-22 28 29 30 0
-23 28 29 30 0
-24 28 29 30 0
-22 32 33 0
-23 31 33 0
-24 31 32 0
-22 34 35 36 0
-23 34 35 36 0
-24 34 35 36 0
-25 2 3 0
-26 1 3 0
-27 1 2 0
-25 4 5 6 0
-26 4 5 6 0
-27 4 5 6 0
-25 8 9 0
-26 7 9 0
-27 7 8 0
-25 10 11 12 0
-26 10 11 12 0
-27 10 11 12 0
-25 13 14 15 0
-26 13 14 15 0
-27 13 14 15 0
-25 16 17 18 0
-26 16 17 18 0
-27 16 17 18 0
-25 19 20 21 0
-26 19 20 21 0
-27 19 20 21 0
-25 22 23 24 0
-26 22 23 24 0
-27 22 23 24 0
-25 29 30 0
-26 28 30 0
-27 28 29 0
-25 31 32 33 0
-26 31 32 33 0
-27 31 32 33 0
-25 34 35 36 0
-26 34 35 36 0
-27 34 35 36 0
-28 1 2 3 0
-29 1 2 3 0
-30 1 2 3 0
-28 5 6 0
-29 4 6 0
-30 4 5 0
-28 7 8 9 0
-29 7 8 9 0
-30 7 8 9 0
-28 11 12 0
-29 10 12 0
-30 10 11 0
-28 14 15 0
-29 13 15 0
-30 13 14 0
-28 17 18 0
-29 16 18 0
-30 16 17 0
-28 19 20 21 0
-29 19 20 21 0
-30 19 20 21 0
-28 22 23 24 0
-29 22 23 24 0
-30 22 23 24 0
-28 26 27 0
-29 25 27 0
-30 25 26 0
-28 31 32 33 0
-29 31 32 33 0
-30 31 32 33 0
-28 35 36 0
-29 34 36 0
-30 34 35 0
-31 1 2 3 0
-32 1 2 3 0
-33 1 2 3 0
-31 5 6 0
-32 4 6 0
-33 4 5 0
-31 7 8 9 0
-32 7 8 9 0
-33 7 8 9 0
-31 10 11 12 0
-32 10 11 12 0
-33 10 11 12 0
-31 14 15 0
-32 13 15 0
-33 13 14 0
-31 17 18 0
-32 16 18 0
-33 16 17 0
-31 19 20 21 0
-32 19 20 21 0
-33 19 20 21 0
-31 23 24 0
-32 22 24 0
-33 22 23 0
-31 25 26 27 0
-32 25 26 27 0
-33 25 26 27 0
-31 28 29 30 0
-32 28 29 30 0
-33 28 29 30 0
-31 34 35 36 0
-32 34 35 36 0
-33 34 35 36 0
-34 1 2 3 0
-35 1 2 3 0
-36 1 2 3 0
-34 5 6 0
-35 4 6 0
-36 4 5 0
-34 7 8 9 0
-35 7 8 9 0
-36 7 8 9 0
-34 10 11 12 0
-35 10 11 12 0
-36 10 11 12 0
-34 14 15 0
-35 13 15 0
-36 13 14 0
-34 16 17 18 0
-35 16 17 18 0
-36 16 17 18 0
-34 19 20 21 0
-35 19 20 21 0
-36 19 20 21 0
-34 22 23 24 0
-35 22 23 24 0
-36 22 23 24 0
-34 25 26 27 0
-35 25 26 27 0
-36 25 26 27 0
-34 29 30 0
-35 28 30 0
-36 28 29 0
-34 31 32 33 0
-35 31 32 33 0
-36 31 32 33 0
